(set-logic QF_NRA)
(set-info :source |Benchmarks generated from hycomp (https://es-static.fbk.eu/tools/hycomp/). BMC instances of non-linear hybrid automata taken from: Alessandro Cimatti, Sergio Mover, Stefano Tonetta, A quantifier-free SMT encoding of non-linear hybrid automata, FMCAD 2012 and Alessandro Cimatti, Sergio Mover, Stefano Tonetta, Quantier-free encoding of invariants for Hybrid Systems, Formal Methods in System Design. This instance solves a BMC problem of depth 2 and uses the quantifier free encoding with equivalences encoding. Contacts: Sergio Mover (mover@fbk.eu), Stefano Tonetta (tonettas@fbk.eu), Alessandro Cimatti (cimatti@fbk.eu).|)
(set-info :smt-lib-version 2.0)
(set-info :category "industrial")
(set-info :status unsat)
;; MathSAT API call trace
;; generated on Mon Mar 19 10:43:09 2012
(declare-fun b.delta__AT2 () Real)
(declare-fun b.counter.0__AT2 () Bool)
(declare-fun b.x__AT0 () Real)
(declare-fun b.x__AT2 () Real)
(declare-fun b.EVENT.0__AT2 () Bool)
(declare-fun b.counter.1__AT2 () Bool)
(declare-fun b.speed_y__AT1 () Real)
(declare-fun b.delta__AT1 () Real)
(declare-fun b.bool_atom__AT0 () Bool)
(declare-fun b.y__AT0 () Real)
(declare-fun b.EVENT.1__AT2 () Bool)
(declare-fun b.EVENT.1__AT1 () Bool)
(declare-fun b.counter.2__AT2 () Bool)
(declare-fun b.EVENT.0__AT1 () Bool)
(declare-fun b.counter.0__AT0 () Bool)
(declare-fun b.counter.3__AT2 () Bool)
(declare-fun b.delta__AT0 () Real)
(declare-fun b.counter.1__AT0 () Bool)
(declare-fun b.bool_atom__AT2 () Bool)
(declare-fun b.y__AT1 () Real)
(declare-fun b.EVENT.0__AT0 () Bool)
(declare-fun b.speed_x__AT2 () Real)
(declare-fun b.speed_y__AT2 () Real)
(declare-fun b.speed_y__AT0 () Real)
(declare-fun b.event_is_timed__AT0 () Bool)
(declare-fun b.counter.3__AT0 () Bool)
(declare-fun b.speed_x__AT1 () Real)
(declare-fun b.time__AT1 () Real)
(declare-fun b.x__AT1 () Real)
(declare-fun b.event_is_timed__AT2 () Bool)
(declare-fun b.event_is_timed__AT1 () Bool)
(declare-fun b.counter.0__AT1 () Bool)
(declare-fun b.EVENT.1__AT0 () Bool)
(declare-fun b.speed_loss__AT0 () Real)
(declare-fun b.counter.1__AT1 () Bool)
(declare-fun b.speed_x__AT0 () Real)
(declare-fun b.counter.2__AT1 () Bool)
(declare-fun b.time__AT0 () Real)
(declare-fun b.counter.2__AT0 () Bool)
(declare-fun b.counter.3__AT1 () Bool)
(declare-fun b.time__AT2 () Real)
(declare-fun b.y__AT2 () Real)
(declare-fun b.bool_atom__AT1 () Bool)
(assert (let ((.def_759 (* (- 49.0) b.delta__AT2)))
(let ((.def_760 (* 5.0 b.speed_y__AT2)))
(let ((.def_762 (+ .def_760 .def_759)))
(let ((.def_765 (<= 0.0 .def_762)))
(let ((.def_693 (* b.y__AT2 b.speed_y__AT2)))
(let ((.def_733 (* 2.0 .def_693)))
(let ((.def_734 (+ b.speed_x__AT2 .def_733)))
(let ((.def_738 (<= .def_734 0.0 )))
(let ((.def_766 (and .def_738 .def_765)))
(let ((.def_763 (<= .def_762 0.0 )))
(let ((.def_735 (<= 0.0 .def_734)))
(let ((.def_764 (and .def_735 .def_763)))
(let ((.def_767 (or .def_764 .def_766)))
(let ((.def_682 (* (- (/ 49 10)) b.speed_y__AT2)))
(let ((.def_711 (* 3.0 .def_682)))
(let ((.def_743 (* 2.0 .def_711)))
(let ((.def_744 (* b.delta__AT2 .def_743)))
(let ((.def_745 (* (- 50.0) .def_744)))
(let ((.def_677 (* b.delta__AT2 b.delta__AT2)))
(let ((.def_742 (* (- 7203.0) .def_677)))
(let ((.def_746 (+ .def_742 .def_745)))
(let ((.def_558 (* b.speed_y__AT2 b.speed_y__AT2)))
(let ((.def_747 (* (- 50.0) .def_558)))
(let ((.def_751 (+ .def_747 .def_746)))
(let ((.def_749 (* 490.0 b.y__AT2)))
(let ((.def_752 (+ .def_749 .def_751)))
(let ((.def_755 (<= 0.0 .def_752)))
(let ((.def_756 (and .def_738 .def_755)))
(let ((.def_753 (<= .def_752 0.0 )))
(let ((.def_754 (and .def_735 .def_753)))
(let ((.def_757 (or .def_754 .def_756)))
(let ((.def_689 (* (- (/ 49 10)) b.y__AT2)))
(let ((.def_719 (* 2.0 .def_689)))
(let ((.def_720 (* b.delta__AT2 .def_719)))
(let ((.def_721 (* 50.0 .def_720)))
(let ((.def_715 (* 2.0 .def_558)))
(let ((.def_716 (* b.delta__AT2 .def_715)))
(let ((.def_717 (* 25.0 .def_716)))
(let ((.def_727 (+ .def_717 .def_721)))
(let ((.def_712 (* .def_677 .def_711)))
(let ((.def_713 (* 50.0 .def_712)))
(let ((.def_728 (+ .def_713 .def_727)))
(let ((.def_723 (* 50.0 .def_693)))
(let ((.def_729 (+ .def_723 .def_728)))
(let ((.def_678 (* b.delta__AT2 .def_677)))
(let ((.def_710 (* 2401.0 .def_678)))
(let ((.def_730 (+ .def_710 .def_729)))
(let ((.def_725 (* 25.0 b.speed_x__AT2)))
(let ((.def_731 (+ .def_725 .def_730)))
(let ((.def_737 (<= .def_731 0.0 )))
(let ((.def_739 (and .def_737 .def_738)))
(let ((.def_732 (<= 0.0 .def_731)))
(let ((.def_736 (and .def_732 .def_735)))
(let ((.def_740 (or .def_736 .def_739)))
(let ((.def_694 (* b.delta__AT2 .def_693)))
(let ((.def_695 (* 200.0 .def_694)))
(let ((.def_690 (* .def_677 .def_689)))
(let ((.def_691 (* 200.0 .def_690)))
(let ((.def_701 (+ .def_691 .def_695)))
(let ((.def_686 (* .def_558 .def_677)))
(let ((.def_687 (* 100.0 .def_686)))
(let ((.def_702 (+ .def_687 .def_701)))
(let ((.def_683 (* .def_678 .def_682)))
(let ((.def_684 (* 200.0 .def_683)))
(let ((.def_703 (+ .def_684 .def_702)))
(let ((.def_679 (* b.delta__AT2 .def_678)))
(let ((.def_680 (* 2401.0 .def_679)))
(let ((.def_704 (+ .def_680 .def_703)))
(let ((.def_675 (* b.speed_x__AT2 b.delta__AT2)))
(let ((.def_676 (* 100.0 .def_675)))
(let ((.def_705 (+ .def_676 .def_704)))
(let ((.def_661 (* b.y__AT2 b.y__AT2)))
(let ((.def_697 (* 100.0 .def_661)))
(let ((.def_706 (+ .def_697 .def_705)))
(let ((.def_699 (* 100.0 b.x__AT2)))
(let ((.def_707 (+ .def_699 .def_706)))
(let ((.def_708 (<= 0.0 .def_707)))
(let ((.def_662 (+ b.x__AT2 .def_661)))
(let ((.def_663 (<= 0.0 .def_662)))
(let ((.def_709 (and .def_663 .def_708)))
(let ((.def_741 (and .def_709 .def_740)))
(let ((.def_758 (and .def_741 .def_757)))
(let ((.def_768 (and .def_758 .def_767)))
(let ((.def_71 (<= b.speed_loss__AT0 (/ 1 2))))
(let ((.def_68 (<= (/ 1 10) b.speed_loss__AT0)))
(let ((.def_72 (and .def_68 .def_71)))
(let ((.def_769 (and .def_72 .def_768)))
(let ((.def_288 (not b.counter.0__AT1)))
(let ((.def_278 (not b.counter.1__AT1)))
(let ((.def_667 (and .def_278 .def_288)))
(let ((.def_670 (or b.counter.3__AT1 .def_667)))
(let ((.def_283 (not b.counter.2__AT1)))
(let ((.def_668 (and .def_283 .def_667)))
(let ((.def_297 (not b.counter.3__AT1)))
(let ((.def_669 (or .def_297 .def_668)))
(let ((.def_671 (and .def_669 .def_670)))
(let ((.def_664 (and .def_72 .def_663)))
(let ((.def_658 (not b.EVENT.0__AT2)))
(let ((.def_656 (not b.EVENT.1__AT2)))
(let ((.def_659 (or .def_656 .def_658)))
(let ((.def_6 (not b.counter.0__AT2)))
(let ((.def_4 (not b.counter.1__AT2)))
(let ((.def_649 (or .def_4 .def_6)))
(let ((.def_653 (or b.counter.3__AT2 .def_649)))
(let ((.def_650 (or b.counter.2__AT2 .def_649)))
(let ((.def_9 (not b.counter.2__AT2)))
(let ((.def_648 (or .def_6 .def_9)))
(let ((.def_651 (and .def_648 .def_650)))
(let ((.def_12 (not b.counter.3__AT2)))
(let ((.def_652 (or .def_12 .def_651)))
(let ((.def_654 (and .def_652 .def_653)))
(let ((.def_660 (and .def_654 .def_659)))
(let ((.def_665 (and .def_660 .def_664)))
(let ((.def_643 (<= 0.0 b.delta__AT1)))
(let ((.def_378 (not b.EVENT.0__AT1)))
(let ((.def_376 (not b.EVENT.1__AT1)))
(let ((.def_489 (and .def_376 .def_378)))
(let ((.def_491 (not .def_489)))
(let ((.def_644 (or .def_491 .def_643)))
(let ((.def_645 (or b.EVENT.1__AT1 .def_644)))
(let ((.def_529 (= b.bool_atom__AT1 b.bool_atom__AT2)))
(let ((.def_525 (= b.counter.0__AT2 b.counter.0__AT1)))
(let ((.def_523 (= b.counter.1__AT2 b.counter.1__AT1)))
(let ((.def_521 (= b.counter.2__AT2 b.counter.2__AT1)))
(let ((.def_520 (= b.counter.3__AT2 b.counter.3__AT1)))
(let ((.def_522 (and .def_520 .def_521)))
(let ((.def_524 (and .def_522 .def_523)))
(let ((.def_526 (and .def_524 .def_525)))
(let ((.def_639 (and .def_526 .def_529)))
(let ((.def_640 (or .def_491 .def_639)))
(let ((.def_641 (or b.EVENT.1__AT1 .def_640)))
(let ((.def_622 (* b.speed_y__AT1 b.delta__AT1)))
(let ((.def_623 (* 10.0 .def_622)))
(let ((.def_624 (* (- 10.0) b.y__AT2)))
(let ((.def_630 (+ .def_624 .def_623)))
(let ((.def_395 (* b.delta__AT1 b.delta__AT1)))
(let ((.def_626 (* (- 49.0) .def_395)))
(let ((.def_631 (+ .def_626 .def_630)))
(let ((.def_628 (* 10.0 b.y__AT1)))
(let ((.def_632 (+ .def_628 .def_631)))
(let ((.def_633 (= .def_632 0.0 )))
(let ((.def_617 (* (- 5.0) b.speed_y__AT2)))
(let ((.def_477 (* (- 49.0) b.delta__AT1)))
(let ((.def_618 (+ .def_477 .def_617)))
(let ((.def_478 (* 5.0 b.speed_y__AT1)))
(let ((.def_619 (+ .def_478 .def_618)))
(let ((.def_620 (= .def_619 0.0 )))
(let ((.def_613 (* (- 1.0) b.x__AT2)))
(let ((.def_393 (* b.speed_x__AT1 b.delta__AT1)))
(let ((.def_614 (+ .def_393 .def_613)))
(let ((.def_615 (+ b.x__AT1 .def_614)))
(let ((.def_616 (= .def_615 0.0 )))
(let ((.def_621 (and .def_616 .def_620)))
(let ((.def_634 (and .def_621 .def_633)))
(let ((.def_515 (= b.speed_x__AT1 b.speed_x__AT2)))
(let ((.def_635 (and .def_515 .def_634)))
(let ((.def_636 (or .def_491 .def_635)))
(let ((.def_512 (= b.y__AT1 b.y__AT2)))
(let ((.def_509 (= b.x__AT1 b.x__AT2)))
(let ((.def_607 (and .def_509 .def_512)))
(let ((.def_608 (and .def_515 .def_607)))
(let ((.def_518 (= b.speed_y__AT1 b.speed_y__AT2)))
(let ((.def_609 (and .def_518 .def_608)))
(let ((.def_604 (= b.delta__AT1 0.0 )))
(let ((.def_605 (and .def_489 .def_604)))
(let ((.def_606 (not .def_605)))
(let ((.def_610 (or .def_606 .def_609)))
(let ((.def_611 (or b.EVENT.1__AT1 .def_610)))
(let ((.def_596 (and .def_515 .def_518)))
(let ((.def_597 (and .def_526 .def_596)))
(let ((.def_598 (or b.bool_atom__AT1 .def_597)))
(let ((.def_572 (or .def_6 b.counter.0__AT1)))
(let ((.def_571 (or b.counter.0__AT2 .def_288)))
(let ((.def_573 (and .def_571 .def_572)))
(let ((.def_574 (and .def_4 .def_573)))
(let ((.def_575 (or b.counter.1__AT1 .def_574)))
(let ((.def_570 (or b.counter.1__AT2 .def_278)))
(let ((.def_576 (and .def_570 .def_575)))
(let ((.def_587 (and .def_9 .def_576)))
(let ((.def_588 (or b.counter.2__AT1 .def_587)))
(let ((.def_582 (and .def_4 .def_288)))
(let ((.def_583 (or b.counter.1__AT1 .def_582)))
(let ((.def_584 (and .def_570 .def_583)))
(let ((.def_585 (and b.counter.2__AT2 .def_584)))
(let ((.def_586 (or .def_283 .def_585)))
(let ((.def_589 (and .def_586 .def_588)))
(let ((.def_590 (and b.counter.3__AT2 .def_589)))
(let ((.def_591 (or b.counter.3__AT1 .def_590)))
(let ((.def_577 (and b.counter.2__AT2 .def_576)))
(let ((.def_578 (or b.counter.2__AT1 .def_577)))
(let ((.def_566 (or b.counter.1__AT2 b.counter.1__AT1)))
(let ((.def_564 (and .def_4 b.counter.0__AT2)))
(let ((.def_565 (or .def_278 .def_564)))
(let ((.def_567 (and .def_565 .def_566)))
(let ((.def_568 (and .def_9 .def_567)))
(let ((.def_569 (or .def_283 .def_568)))
(let ((.def_579 (and .def_569 .def_578)))
(let ((.def_580 (and .def_12 .def_579)))
(let ((.def_581 (or .def_297 .def_580)))
(let ((.def_592 (and .def_581 .def_591)))
(let ((.def_272 (* b.speed_y__AT1 b.speed_y__AT1)))
(let ((.def_265 (* b.speed_x__AT1 b.speed_x__AT1)))
(let ((.def_554 (+ .def_265 .def_272)))
(let ((.def_253 (* (- 1.0) b.speed_loss__AT0)))
(let ((.def_254 (+ 1.0 .def_253)))
(let ((.def_266 (* .def_254 .def_254)))
(let ((.def_555 (* .def_266 .def_554)))
(let ((.def_556 (* (- 1.0) .def_555)))
(let ((.def_560 (+ .def_556 .def_558)))
(let ((.def_553 (* b.speed_x__AT2 b.speed_x__AT2)))
(let ((.def_561 (+ .def_553 .def_560)))
(let ((.def_562 (= .def_561 0.0 )))
(let ((.def_251 (* 2.0 b.y__AT1)))
(let ((.def_545 (* .def_251 .def_254)))
(let ((.def_546 (* b.speed_y__AT1 .def_545)))
(let ((.def_543 (* b.speed_x__AT1 .def_254)))
(let ((.def_549 (+ .def_543 .def_546)))
(let ((.def_541 (* 2.0 b.y__AT2)))
(let ((.def_542 (* b.speed_y__AT2 .def_541)))
(let ((.def_550 (+ .def_542 .def_549)))
(let ((.def_551 (+ b.speed_x__AT2 .def_550)))
(let ((.def_552 (= .def_551 0.0 )))
(let ((.def_563 (and .def_552 .def_562)))
(let ((.def_593 (and .def_563 .def_592)))
(let ((.def_540 (not b.bool_atom__AT1)))
(let ((.def_594 (or .def_540 .def_593)))
(let ((.def_252 (* b.speed_y__AT1 .def_251)))
(let ((.def_535 (+ b.speed_x__AT1 .def_252)))
(let ((.def_536 (<= 0.0 .def_535)))
(let ((.def_537 (not .def_536)))
(let ((.def_381 (* b.y__AT1 b.y__AT1)))
(let ((.def_382 (+ b.x__AT1 .def_381)))
(let ((.def_534 (= .def_382 0.0 )))
(let ((.def_538 (and .def_534 .def_537)))
(let ((.def_539 (= b.bool_atom__AT1 .def_538)))
(let ((.def_595 (and .def_539 .def_594)))
(let ((.def_599 (and .def_595 .def_598)))
(let ((.def_600 (and .def_509 .def_599)))
(let ((.def_601 (and .def_512 .def_600)))
(let ((.def_602 (or .def_489 .def_601)))
(let ((.def_603 (or b.EVENT.1__AT1 .def_602)))
(let ((.def_612 (and .def_603 .def_611)))
(let ((.def_637 (and .def_612 .def_636)))
(let ((.def_496 (= b.time__AT1 b.time__AT2)))
(let ((.def_510 (and .def_496 .def_509)))
(let ((.def_513 (and .def_510 .def_512)))
(let ((.def_516 (and .def_513 .def_515)))
(let ((.def_519 (and .def_516 .def_518)))
(let ((.def_527 (and .def_519 .def_526)))
(let ((.def_530 (and .def_527 .def_529)))
(let ((.def_531 (or .def_376 .def_530)))
(let ((.def_499 (* (- 1.0) b.time__AT2)))
(let ((.def_502 (+ b.delta__AT1 .def_499)))
(let ((.def_503 (+ b.time__AT1 .def_502)))
(let ((.def_504 (= .def_503 0.0 )))
(let ((.def_505 (or .def_491 .def_504)))
(let ((.def_506 (or b.EVENT.1__AT1 .def_505)))
(let ((.def_497 (or .def_489 .def_496)))
(let ((.def_498 (or b.EVENT.1__AT1 .def_497)))
(let ((.def_507 (and .def_498 .def_506)))
(let ((.def_532 (and .def_507 .def_531)))
(let ((.def_493 (= .def_491 b.event_is_timed__AT2)))
(let ((.def_490 (= b.event_is_timed__AT1 .def_489)))
(let ((.def_494 (and .def_490 .def_493)))
(let ((.def_533 (and .def_494 .def_532)))
(let ((.def_638 (and .def_533 .def_637)))
(let ((.def_642 (and .def_638 .def_641)))
(let ((.def_646 (and .def_642 .def_645)))
(let ((.def_647 (and .def_376 .def_646)))
(let ((.def_666 (and .def_647 .def_665)))
(let ((.def_672 (and .def_666 .def_671)))
(let ((.def_480 (+ .def_478 .def_477)))
(let ((.def_483 (<= 0.0 .def_480)))
(let ((.def_411 (* b.y__AT1 b.speed_y__AT1)))
(let ((.def_451 (* 2.0 .def_411)))
(let ((.def_452 (+ b.speed_x__AT1 .def_451)))
(let ((.def_456 (<= .def_452 0.0 )))
(let ((.def_484 (and .def_456 .def_483)))
(let ((.def_481 (<= .def_480 0.0 )))
(let ((.def_453 (<= 0.0 .def_452)))
(let ((.def_482 (and .def_453 .def_481)))
(let ((.def_485 (or .def_482 .def_484)))
(let ((.def_400 (* (- (/ 49 10)) b.speed_y__AT1)))
(let ((.def_429 (* 3.0 .def_400)))
(let ((.def_461 (* 2.0 .def_429)))
(let ((.def_462 (* b.delta__AT1 .def_461)))
(let ((.def_463 (* (- 50.0) .def_462)))
(let ((.def_460 (* (- 7203.0) .def_395)))
(let ((.def_464 (+ .def_460 .def_463)))
(let ((.def_465 (* (- 50.0) .def_272)))
(let ((.def_469 (+ .def_465 .def_464)))
(let ((.def_467 (* 490.0 b.y__AT1)))
(let ((.def_470 (+ .def_467 .def_469)))
(let ((.def_473 (<= 0.0 .def_470)))
(let ((.def_474 (and .def_456 .def_473)))
(let ((.def_471 (<= .def_470 0.0 )))
(let ((.def_472 (and .def_453 .def_471)))
(let ((.def_475 (or .def_472 .def_474)))
(let ((.def_407 (* (- (/ 49 10)) b.y__AT1)))
(let ((.def_437 (* 2.0 .def_407)))
(let ((.def_438 (* b.delta__AT1 .def_437)))
(let ((.def_439 (* 50.0 .def_438)))
(let ((.def_433 (* 2.0 .def_272)))
(let ((.def_434 (* b.delta__AT1 .def_433)))
(let ((.def_435 (* 25.0 .def_434)))
(let ((.def_445 (+ .def_435 .def_439)))
(let ((.def_430 (* .def_395 .def_429)))
(let ((.def_431 (* 50.0 .def_430)))
(let ((.def_446 (+ .def_431 .def_445)))
(let ((.def_441 (* 50.0 .def_411)))
(let ((.def_447 (+ .def_441 .def_446)))
(let ((.def_396 (* b.delta__AT1 .def_395)))
(let ((.def_428 (* 2401.0 .def_396)))
(let ((.def_448 (+ .def_428 .def_447)))
(let ((.def_443 (* 25.0 b.speed_x__AT1)))
(let ((.def_449 (+ .def_443 .def_448)))
(let ((.def_455 (<= .def_449 0.0 )))
(let ((.def_457 (and .def_455 .def_456)))
(let ((.def_450 (<= 0.0 .def_449)))
(let ((.def_454 (and .def_450 .def_453)))
(let ((.def_458 (or .def_454 .def_457)))
(let ((.def_412 (* b.delta__AT1 .def_411)))
(let ((.def_413 (* 200.0 .def_412)))
(let ((.def_408 (* .def_395 .def_407)))
(let ((.def_409 (* 200.0 .def_408)))
(let ((.def_419 (+ .def_409 .def_413)))
(let ((.def_404 (* .def_272 .def_395)))
(let ((.def_405 (* 100.0 .def_404)))
(let ((.def_420 (+ .def_405 .def_419)))
(let ((.def_401 (* .def_396 .def_400)))
(let ((.def_402 (* 200.0 .def_401)))
(let ((.def_421 (+ .def_402 .def_420)))
(let ((.def_397 (* b.delta__AT1 .def_396)))
(let ((.def_398 (* 2401.0 .def_397)))
(let ((.def_422 (+ .def_398 .def_421)))
(let ((.def_394 (* 100.0 .def_393)))
(let ((.def_423 (+ .def_394 .def_422)))
(let ((.def_415 (* 100.0 .def_381)))
(let ((.def_424 (+ .def_415 .def_423)))
(let ((.def_417 (* 100.0 b.x__AT1)))
(let ((.def_425 (+ .def_417 .def_424)))
(let ((.def_426 (<= 0.0 .def_425)))
(let ((.def_383 (<= 0.0 .def_382)))
(let ((.def_427 (and .def_383 .def_426)))
(let ((.def_459 (and .def_427 .def_458)))
(let ((.def_476 (and .def_459 .def_475)))
(let ((.def_486 (and .def_476 .def_485)))
(let ((.def_487 (and .def_72 .def_486)))
(let ((.def_41 (not b.counter.0__AT0)))
(let ((.def_39 (not b.counter.1__AT0)))
(let ((.def_42 (and .def_39 .def_41)))
(let ((.def_388 (or .def_42 b.counter.3__AT0)))
(let ((.def_47 (not b.counter.3__AT0)))
(let ((.def_44 (not b.counter.2__AT0)))
(let ((.def_45 (and .def_42 .def_44)))
(let ((.def_387 (or .def_45 .def_47)))
(let ((.def_389 (and .def_387 .def_388)))
(let ((.def_384 (and .def_72 .def_383)))
(let ((.def_379 (or .def_376 .def_378)))
(let ((.def_369 (or .def_278 .def_288)))
(let ((.def_373 (or b.counter.3__AT1 .def_369)))
(let ((.def_370 (or b.counter.2__AT1 .def_369)))
(let ((.def_368 (or .def_283 .def_288)))
(let ((.def_371 (and .def_368 .def_370)))
(let ((.def_372 (or .def_297 .def_371)))
(let ((.def_374 (and .def_372 .def_373)))
(let ((.def_380 (and .def_374 .def_379)))
(let ((.def_385 (and .def_380 .def_384)))
(let ((.def_363 (<= 0.0 b.delta__AT0)))
(let ((.def_60 (not b.EVENT.0__AT0)))
(let ((.def_58 (not b.EVENT.1__AT0)))
(let ((.def_191 (and .def_58 .def_60)))
(let ((.def_193 (not .def_191)))
(let ((.def_364 (or .def_193 .def_363)))
(let ((.def_365 (or b.EVENT.1__AT0 .def_364)))
(let ((.def_237 (= b.bool_atom__AT0 b.bool_atom__AT1)))
(let ((.def_232 (= b.counter.0__AT0 b.counter.0__AT1)))
(let ((.def_229 (= b.counter.1__AT0 b.counter.1__AT1)))
(let ((.def_226 (= b.counter.2__AT0 b.counter.2__AT1)))
(let ((.def_224 (= b.counter.3__AT0 b.counter.3__AT1)))
(let ((.def_227 (and .def_224 .def_226)))
(let ((.def_230 (and .def_227 .def_229)))
(let ((.def_233 (and .def_230 .def_232)))
(let ((.def_359 (and .def_233 .def_237)))
(let ((.def_360 (or .def_193 .def_359)))
(let ((.def_361 (or b.EVENT.1__AT0 .def_360)))
(let ((.def_341 (* b.speed_y__AT0 b.delta__AT0)))
(let ((.def_342 (* 10.0 .def_341)))
(let ((.def_346 (* (- 10.0) b.y__AT1)))
(let ((.def_350 (+ .def_346 .def_342)))
(let ((.def_81 (* b.delta__AT0 b.delta__AT0)))
(let ((.def_343 (* (- 49.0) .def_81)))
(let ((.def_351 (+ .def_343 .def_350)))
(let ((.def_348 (* 10.0 b.y__AT0)))
(let ((.def_352 (+ .def_348 .def_351)))
(let ((.def_353 (= .def_352 0.0 )))
(let ((.def_336 (* (- 5.0) b.speed_y__AT1)))
(let ((.def_178 (* (- 49.0) b.delta__AT0)))
(let ((.def_337 (+ .def_178 .def_336)))
(let ((.def_180 (* 5.0 b.speed_y__AT0)))
(let ((.def_338 (+ .def_180 .def_337)))
(let ((.def_339 (= .def_338 0.0 )))
(let ((.def_331 (* (- 1.0) b.x__AT1)))
(let ((.def_78 (* b.speed_x__AT0 b.delta__AT0)))
(let ((.def_332 (+ .def_78 .def_331)))
(let ((.def_333 (+ b.x__AT0 .def_332)))
(let ((.def_334 (= .def_333 0.0 )))
(let ((.def_340 (and .def_334 .def_339)))
(let ((.def_354 (and .def_340 .def_353)))
(let ((.def_218 (= b.speed_x__AT0 b.speed_x__AT1)))
(let ((.def_355 (and .def_218 .def_354)))
(let ((.def_356 (or .def_193 .def_355)))
(let ((.def_215 (= b.y__AT0 b.y__AT1)))
(let ((.def_212 (= b.x__AT0 b.x__AT1)))
(let ((.def_325 (and .def_212 .def_215)))
(let ((.def_326 (and .def_218 .def_325)))
(let ((.def_221 (= b.speed_y__AT0 b.speed_y__AT1)))
(let ((.def_327 (and .def_221 .def_326)))
(let ((.def_322 (= b.delta__AT0 0.0 )))
(let ((.def_323 (and .def_191 .def_322)))
(let ((.def_324 (not .def_323)))
(let ((.def_328 (or .def_324 .def_327)))
(let ((.def_329 (or b.EVENT.1__AT0 .def_328)))
(let ((.def_314 (and .def_218 .def_221)))
(let ((.def_315 (and .def_233 .def_314)))
(let ((.def_316 (or b.bool_atom__AT0 .def_315)))
(let ((.def_289 (or b.counter.0__AT0 .def_288)))
(let ((.def_287 (or .def_41 b.counter.0__AT1)))
(let ((.def_290 (and .def_287 .def_289)))
(let ((.def_291 (and .def_278 .def_290)))
(let ((.def_292 (or b.counter.1__AT0 .def_291)))
(let ((.def_286 (or .def_39 b.counter.1__AT1)))
(let ((.def_293 (and .def_286 .def_292)))
(let ((.def_305 (and .def_283 .def_293)))
(let ((.def_306 (or b.counter.2__AT0 .def_305)))
(let ((.def_300 (and .def_41 .def_278)))
(let ((.def_301 (or b.counter.1__AT0 .def_300)))
(let ((.def_302 (and .def_286 .def_301)))
(let ((.def_303 (and b.counter.2__AT1 .def_302)))
(let ((.def_304 (or .def_44 .def_303)))
(let ((.def_307 (and .def_304 .def_306)))
(let ((.def_308 (and b.counter.3__AT1 .def_307)))
(let ((.def_309 (or b.counter.3__AT0 .def_308)))
(let ((.def_294 (and b.counter.2__AT1 .def_293)))
(let ((.def_295 (or b.counter.2__AT0 .def_294)))
(let ((.def_281 (or b.counter.1__AT0 b.counter.1__AT1)))
(let ((.def_279 (and b.counter.0__AT1 .def_278)))
(let ((.def_280 (or .def_39 .def_279)))
(let ((.def_282 (and .def_280 .def_281)))
(let ((.def_284 (and .def_282 .def_283)))
(let ((.def_285 (or .def_44 .def_284)))
(let ((.def_296 (and .def_285 .def_295)))
(let ((.def_298 (and .def_296 .def_297)))
(let ((.def_299 (or .def_47 .def_298)))
(let ((.def_310 (and .def_299 .def_309)))
(let ((.def_267 (* b.speed_x__AT0 b.speed_x__AT0)))
(let ((.def_95 (* b.speed_y__AT0 b.speed_y__AT0)))
(let ((.def_268 (+ .def_95 .def_267)))
(let ((.def_269 (* .def_266 .def_268)))
(let ((.def_270 (* (- 1.0) .def_269)))
(let ((.def_274 (+ .def_270 .def_272)))
(let ((.def_275 (+ .def_265 .def_274)))
(let ((.def_276 (= .def_275 0.0 )))
(let ((.def_243 (* 2.0 b.y__AT0)))
(let ((.def_257 (* .def_243 .def_254)))
(let ((.def_258 (* b.speed_y__AT0 .def_257)))
(let ((.def_255 (* b.speed_x__AT0 .def_254)))
(let ((.def_261 (+ .def_255 .def_258)))
(let ((.def_262 (+ .def_252 .def_261)))
(let ((.def_263 (+ b.speed_x__AT1 .def_262)))
(let ((.def_264 (= .def_263 0.0 )))
(let ((.def_277 (and .def_264 .def_276)))
(let ((.def_311 (and .def_277 .def_310)))
(let ((.def_250 (not b.bool_atom__AT0)))
(let ((.def_312 (or .def_250 .def_311)))
(let ((.def_244 (* b.speed_y__AT0 .def_243)))
(let ((.def_245 (+ b.speed_x__AT0 .def_244)))
(let ((.def_246 (<= 0.0 .def_245)))
(let ((.def_247 (not .def_246)))
(let ((.def_63 (* b.y__AT0 b.y__AT0)))
(let ((.def_64 (+ b.x__AT0 .def_63)))
(let ((.def_242 (= .def_64 0.0 )))
(let ((.def_248 (and .def_242 .def_247)))
(let ((.def_249 (= b.bool_atom__AT0 .def_248)))
(let ((.def_313 (and .def_249 .def_312)))
(let ((.def_317 (and .def_313 .def_316)))
(let ((.def_318 (and .def_212 .def_317)))
(let ((.def_319 (and .def_215 .def_318)))
(let ((.def_320 (or .def_191 .def_319)))
(let ((.def_321 (or b.EVENT.1__AT0 .def_320)))
(let ((.def_330 (and .def_321 .def_329)))
(let ((.def_357 (and .def_330 .def_356)))
(let ((.def_198 (= b.time__AT0 b.time__AT1)))
(let ((.def_213 (and .def_198 .def_212)))
(let ((.def_216 (and .def_213 .def_215)))
(let ((.def_219 (and .def_216 .def_218)))
(let ((.def_222 (and .def_219 .def_221)))
(let ((.def_234 (and .def_222 .def_233)))
(let ((.def_238 (and .def_234 .def_237)))
(let ((.def_239 (or .def_58 .def_238)))
(let ((.def_202 (* (- 1.0) b.time__AT1)))
(let ((.def_205 (+ b.delta__AT0 .def_202)))
(let ((.def_206 (+ b.time__AT0 .def_205)))
(let ((.def_207 (= .def_206 0.0 )))
(let ((.def_208 (or .def_193 .def_207)))
(let ((.def_209 (or b.EVENT.1__AT0 .def_208)))
(let ((.def_199 (or .def_191 .def_198)))
(let ((.def_200 (or b.EVENT.1__AT0 .def_199)))
(let ((.def_210 (and .def_200 .def_209)))
(let ((.def_240 (and .def_210 .def_239)))
(let ((.def_195 (= .def_193 b.event_is_timed__AT1)))
(let ((.def_192 (= b.event_is_timed__AT0 .def_191)))
(let ((.def_196 (and .def_192 .def_195)))
(let ((.def_241 (and .def_196 .def_240)))
(let ((.def_358 (and .def_241 .def_357)))
(let ((.def_362 (and .def_358 .def_361)))
(let ((.def_366 (and .def_362 .def_365)))
(let ((.def_367 (and .def_58 .def_366)))
(let ((.def_386 (and .def_367 .def_385)))
(let ((.def_390 (and .def_386 .def_389)))
(let ((.def_182 (+ .def_180 .def_178)))
(let ((.def_185 (<= 0.0 .def_182)))
(let ((.def_103 (* b.y__AT0 b.speed_y__AT0)))
(let ((.def_146 (* 2.0 .def_103)))
(let ((.def_147 (+ b.speed_x__AT0 .def_146)))
(let ((.def_151 (<= .def_147 0.0 )))
(let ((.def_186 (and .def_151 .def_185)))
(let ((.def_183 (<= .def_182 0.0 )))
(let ((.def_148 (<= 0.0 .def_147)))
(let ((.def_184 (and .def_148 .def_183)))
(let ((.def_187 (or .def_184 .def_186)))
(let ((.def_90 (* (- (/ 49 10)) b.speed_y__AT0)))
(let ((.def_122 (* 3.0 .def_90)))
(let ((.def_158 (* 2.0 .def_122)))
(let ((.def_159 (* b.delta__AT0 .def_158)))
(let ((.def_161 (* (- 50.0) .def_159)))
(let ((.def_163 (* (- 50.0) .def_95)))
(let ((.def_168 (+ .def_163 .def_161)))
(let ((.def_157 (* (- 7203.0) .def_81)))
(let ((.def_169 (+ .def_157 .def_168)))
(let ((.def_166 (* 490.0 b.y__AT0)))
(let ((.def_170 (+ .def_166 .def_169)))
(let ((.def_173 (<= 0.0 .def_170)))
(let ((.def_174 (and .def_151 .def_173)))
(let ((.def_171 (<= .def_170 0.0 )))
(let ((.def_172 (and .def_148 .def_171)))
(let ((.def_175 (or .def_172 .def_174)))
(let ((.def_99 (* (- (/ 49 10)) b.y__AT0)))
(let ((.def_132 (* 2.0 .def_99)))
(let ((.def_133 (* b.delta__AT0 .def_132)))
(let ((.def_134 (* 50.0 .def_133)))
(let ((.def_127 (* 2.0 .def_95)))
(let ((.def_128 (* b.delta__AT0 .def_127)))
(let ((.def_130 (* 25.0 .def_128)))
(let ((.def_140 (+ .def_130 .def_134)))
(let ((.def_123 (* .def_81 .def_122)))
(let ((.def_125 (* 50.0 .def_123)))
(let ((.def_141 (+ .def_125 .def_140)))
(let ((.def_136 (* 50.0 .def_103)))
(let ((.def_142 (+ .def_136 .def_141)))
(let ((.def_82 (* b.delta__AT0 .def_81)))
(let ((.def_120 (* 2401.0 .def_82)))
(let ((.def_143 (+ .def_120 .def_142)))
(let ((.def_138 (* 25.0 b.speed_x__AT0)))
(let ((.def_144 (+ .def_138 .def_143)))
(let ((.def_150 (<= .def_144 0.0 )))
(let ((.def_152 (and .def_150 .def_151)))
(let ((.def_145 (<= 0.0 .def_144)))
(let ((.def_149 (and .def_145 .def_148)))
(let ((.def_153 (or .def_149 .def_152)))
(let ((.def_104 (* b.delta__AT0 .def_103)))
(let ((.def_105 (* 200.0 .def_104)))
(let ((.def_100 (* .def_81 .def_99)))
(let ((.def_101 (* 200.0 .def_100)))
(let ((.def_111 (+ .def_101 .def_105)))
(let ((.def_96 (* .def_81 .def_95)))
(let ((.def_97 (* 100.0 .def_96)))
(let ((.def_112 (+ .def_97 .def_111)))
(let ((.def_91 (* .def_82 .def_90)))
(let ((.def_93 (* 200.0 .def_91)))
(let ((.def_113 (+ .def_93 .def_112)))
(let ((.def_83 (* b.delta__AT0 .def_82)))
(let ((.def_85 (* 2401.0 .def_83)))
(let ((.def_114 (+ .def_85 .def_113)))
(let ((.def_80 (* 100.0 .def_78)))
(let ((.def_115 (+ .def_80 .def_114)))
(let ((.def_107 (* 100.0 .def_63)))
(let ((.def_116 (+ .def_107 .def_115)))
(let ((.def_109 (* 100.0 b.x__AT0)))
(let ((.def_117 (+ .def_109 .def_116)))
(let ((.def_118 (<= 0.0 .def_117)))
(let ((.def_65 (<= 0.0 .def_64)))
(let ((.def_119 (and .def_65 .def_118)))
(let ((.def_154 (and .def_119 .def_153)))
(let ((.def_176 (and .def_154 .def_175)))
(let ((.def_188 (and .def_176 .def_187)))
(let ((.def_189 (and .def_72 .def_188)))
(let ((.def_73 (and .def_65 .def_72)))
(let ((.def_61 (or .def_58 .def_60)))
(let ((.def_51 (or .def_39 .def_41)))
(let ((.def_55 (or b.counter.3__AT0 .def_51)))
(let ((.def_52 (or b.counter.2__AT0 .def_51)))
(let ((.def_50 (or .def_41 .def_44)))
(let ((.def_53 (and .def_50 .def_52)))
(let ((.def_54 (or .def_47 .def_53)))
(let ((.def_56 (and .def_54 .def_55)))
(let ((.def_62 (and .def_56 .def_61)))
(let ((.def_74 (and .def_62 .def_73)))
(let ((.def_48 (and .def_45 .def_47)))
(let ((.def_36 (= b.speed_y__AT0 1.0 )))
(let ((.def_33 (= b.speed_x__AT0 1.0 )))
(let ((.def_29 (= b.y__AT0 10.0 )))
(let ((.def_25 (= b.x__AT0 (- 9.0) )))
(let ((.def_19 (= b.time__AT0 0.0 )))
(let ((.def_21 (and .def_19 b.event_is_timed__AT0)))
(let ((.def_26 (and .def_21 .def_25)))
(let ((.def_30 (and .def_26 .def_29)))
(let ((.def_34 (and .def_30 .def_33)))
(let ((.def_37 (and .def_34 .def_36)))
(let ((.def_49 (and .def_37 .def_48)))
(let ((.def_75 (and .def_49 .def_74)))
(let ((.def_7 (and .def_4 .def_6)))
(let ((.def_14 (or .def_7 b.counter.3__AT2)))
(let ((.def_10 (and .def_7 .def_9)))
(let ((.def_13 (or .def_10 .def_12)))
(let ((.def_15 (and .def_13 .def_14)))
(let ((.def_16 (not .def_15)))
(let ((.def_76 (and .def_16 .def_75)))
(let ((.def_190 (and .def_76 .def_189)))
(let ((.def_391 (and .def_190 .def_390)))
(let ((.def_488 (and .def_391 .def_487)))
(let ((.def_673 (and .def_488 .def_672)))
(let ((.def_770 (and .def_673 .def_769)))
.def_770))))))))))))))))))))))))))))))))))))))))))))))))))))))))))))))))))))))))))))))))))))))))))))))))))))))))))))))))))))))))))))))))))))))))))))))))))))))))))))))))))))))))))))))))))))))))))))))))))))))))))))))))))))))))))))))))))))))))))))))))))))))))))))))))))))))))))))))))))))))))))))))))))))))))))))))))))))))))))))))))))))))))))))))))))))))))))))))))))))))))))))))))))))))))))))))))))))))))))))))))))))))))))))))))))))))))))))))))))))))))))))))))))))))))))))))))))))))))))))))))))))))))))))))))))))))))))))))))))))))))))))))))))))))))))))))))))))))))))))))))))))))))))))))))))))))))))))))))))))))))))))))))))))))))))))))))))))))))))
(check-sat)
(exit)
